10
1 0 7
2 0 19
2 1 15
3 0 2
3 1 8
3 2 4
4 0 13
4 1 17
4 2 8
4 3 19
5 0 2
5 1 8
5 2 9
5 3 16
5 4 3
6 0 19
6 1 19
6 2 10
6 3 5
6 4 6
6 5 11
7 0 19
7 1 7
7 2 16
7 3 2
7 4 17
7 5 11
7 6 10
8 0 11
8 1 7
8 2 17
8 3 11
8 4 19
8 5 1
8 6 15
8 7 2
9 0 18
9 1 12
9 2 8
9 3 19
9 4 13
9 5 10
9 6 6
9 7 16
9 8 12
